c description: Random 3-CNF over 15 variables and 80 clauses
c generator: CNFgen (0.9.0)
c copyright: (C) 2012-2020 Massimo Lauria <massimo.lauria@uniroma1.it>
c url: https://massimolauria.net/cnfgen
c
p cnf 15 80
-6 7 -9 0
-7 13 -14 0
5 10 -15 0
-1 -2 12 0
-4 9 -11 0
-3 4 11 0
-2 3 -14 0
-9 13 -14 0
3 7 -11 0
-5 -10 -12 0
8 -12 -14 0
1 10 -11 0
-1 7 -10 0
5 12 -13 0
3 5 -7 0
-10 -13 -14 0
-6 10 12 0
6 8 15 0
6 9 -15 0
6 9 15 0
-4 5 -11 0
1 -8 -12 0
5 -7 15 0
-6 -11 -14 0
-1 -5 -12 0
-3 4 -9 0
3 7 13 0
-1 -13 -14 0
2 -8 9 0
-2 6 -15 0
1 2 -15 0
-2 7 -12 0
9 -12 -15 0
-7 14 -15 0
-5 -9 -13 0
2 -3 -5 0
-1 8 -13 0
-6 10 -13 0
2 -3 -8 0
1 -7 -13 0
-2 -5 -9 0
7 9 -15 0
-1 -8 -14 0
4 -10 14 0
-3 9 -10 0
-2 -8 15 0
6 -8 10 0
6 -8 15 0
-3 -9 -14 0
5 8 -15 0
1 3 14 0
-3 -7 -10 0
-3 4 14 0
2 7 11 0
6 11 15 0
9 11 14 0
-13 -14 -15 0
1 -5 13 0
-8 -9 10 0
2 -8 12 0
1 -8 -9 0
-5 -10 15 0
4 10 15 0
6 11 14 0
-1 -8 12 0
-6 -9 15 0
-7 10 -15 0
3 -8 -12 0
7 -8 14 0
-4 -9 -11 0
7 10 -12 0
3 -7 -11 0
8 13 14 0
-8 -13 15 0
5 12 -14 0
-5 11 -15 0
2 -12 -14 0
-5 -8 10 0
-5 7 11 0
-8 -11 -13 0